p edge 139 1188
v 1 453
v 2 630
v 3 585
v 4 557
v 5 222
v 6 239
v 7 236
v 8 650
v 9 217
v 10 314
v 11 636
v 12 248
v 13 455
v 14 498
v 15 255
v 16 659
v 17 359
v 18 400
v 19 582
v 20 247
v 21 345
v 22 251
v 23 660
v 24 328
v 25 351
v 26 588
v 27 330
v 28 546
v 29 695
v 30 672
v 31 489
v 32 220
v 33 507
v 34 374
v 35 534
v 36 223
v 37 300
v 38 661
v 39 206
v 40 239
v 41 262
v 42 677
v 43 234
v 44 260
v 45 653
v 46 321
v 47 228
v 48 354
v 49 463
v 50 392
v 51 353
v 52 610
v 53 579
v 54 659
v 55 438
v 56 698
v 57 534
v 58 507
v 59 480
v 60 365
v 61 433
v 62 316
v 63 444
v 64 478
v 65 277
v 66 677
v 67 329
v 68 381
v 69 217
v 70 422
v 71 417
v 72 620
v 73 534
v 74 514
v 75 564
v 76 213
v 77 678
v 78 368
v 79 650
v 80 697
v 81 463
v 82 495
v 83 522
v 84 452
v 85 304
v 86 493
v 87 628
v 88 604
v 89 291
v 90 593
v 91 484
v 92 287
v 93 548
v 94 643
v 95 681
v 96 656
v 97 520
v 98 603
v 99 502
v 100 257
v 101 686
v 102 575
v 103 661
v 104 481
v 105 650
v 106 647
v 107 574
v 108 642
v 109 259
v 110 228
v 111 308
v 112 621
v 113 695
v 114 640
v 115 567
v 116 612
v 117 494
v 118 680
v 119 358
v 120 312
v 121 474
v 122 331
v 123 313
v 124 317
v 125 568
v 126 250
v 127 620
v 128 563
v 129 266
v 130 645
v 131 477
v 132 597
v 133 578
v 134 368
v 135 444
v 136 438
v 137 493
v 138 291
v 139 316
e 1 2
e 1 3
e 1 4
e 1 5
e 1 6
e 1 7
e 1 8
e 1 9
e 1 10
e 1 11
e 1 12
e 1 13
e 1 22
e 1 32
e 1 43
e 1 53
e 1 61
e 1 95
e 1 102
e 1 111
e 1 129
e 2 3
e 2 4
e 2 5
e 2 6
e 2 7
e 2 8
e 2 9
e 2 10
e 2 11
e 2 12
e 2 13
e 2 44
e 2 62
e 2 71
e 2 77
e 2 85
e 2 103
e 2 121
e 2 130
e 3 4
e 3 5
e 3 6
e 3 7
e 3 8
e 3 9
e 3 10
e 3 11
e 3 12
e 3 13
e 3 33
e 3 45
e 3 63
e 3 72
e 3 86
e 3 112
e 3 131
e 4 5
e 4 6
e 4 7
e 4 8
e 4 9
e 4 10
e 4 11
e 4 12
e 4 13
e 4 14
e 4 23
e 4 34
e 4 78
e 4 96
e 4 113
e 5 6
e 5 7
e 5 8
e 5 9
e 5 10
e 5 11
e 5 12
e 5 13
e 5 15
e 5 35
e 5 54
e 5 64
e 5 79
e 5 97
e 5 104
e 5 122
e 5 132
e 6 7
e 6 8
e 6 9
e 6 10
e 6 11
e 6 12
e 6 13
e 6 24
e 6 46
e 6 65
e 6 80
e 6 87
e 6 133
e 7 8
e 7 9
e 7 10
e 7 11
e 7 12
e 7 13
e 7 16
e 7 25
e 7 36
e 7 47
e 7 55
e 7 66
e 7 81
e 7 105
e 7 123
e 7 134
e 8 9
e 8 10
e 8 11
e 8 12
e 8 13
e 8 18
e 8 27
e 8 38
e 8 49
e 8 67
e 8 73
e 8 83
e 8 89
e 8 98
e 8 115
e 8 136
e 9 10
e 9 11
e 9 12
e 9 13
e 9 39
e 9 50
e 9 68
e 9 90
e 9 107
e 9 116
e 9 125
e 10 11
e 10 12
e 10 13
e 10 19
e 10 28
e 10 40
e 10 51
e 10 74
e 10 91
e 10 117
e 10 126
e 11 12
e 11 13
e 11 29
e 11 52
e 11 57
e 11 75
e 11 92
e 11 108
e 11 118
e 11 137
e 12 13
e 12 20
e 12 30
e 12 58
e 12 76
e 12 84
e 12 93
e 12 99
e 12 109
e 12 119
e 12 138
e 13 21
e 13 42
e 13 60
e 13 70
e 13 101
e 13 120
e 13 128
e 13 139
e 14 15
e 14 16
e 14 17
e 14 18
e 14 19
e 14 20
e 14 21
e 14 23
e 14 34
e 14 78
e 14 96
e 14 113
e 15 16
e 15 17
e 15 18
e 15 19
e 15 20
e 15 21
e 15 35
e 15 54
e 15 64
e 15 79
e 15 97
e 15 104
e 15 122
e 15 132
e 16 17
e 16 18
e 16 19
e 16 20
e 16 21
e 16 25
e 16 36
e 16 47
e 16 55
e 16 66
e 16 81
e 16 105
e 16 123
e 16 134
e 17 18
e 17 19
e 17 20
e 17 21
e 17 26
e 17 37
e 17 48
e 17 56
e 17 82
e 17 88
e 17 106
e 17 114
e 17 124
e 17 135
e 18 19
e 18 20
e 18 21
e 18 27
e 18 38
e 18 49
e 18 67
e 18 73
e 18 83
e 18 89
e 18 98
e 18 115
e 18 136
e 19 20
e 19 21
e 19 28
e 19 40
e 19 51
e 19 74
e 19 91
e 19 117
e 19 126
e 20 21
e 20 30
e 20 58
e 20 76
e 20 84
e 20 93
e 20 99
e 20 109
e 20 119
e 20 138
e 21 42
e 21 60
e 21 70
e 21 101
e 21 120
e 21 128
e 21 139
e 22 23
e 22 24
e 22 25
e 22 26
e 22 27
e 22 28
e 22 29
e 22 30
e 22 31
e 22 32
e 22 43
e 22 53
e 22 61
e 22 95
e 22 102
e 22 111
e 22 129
e 23 24
e 23 25
e 23 26
e 23 27
e 23 28
e 23 29
e 23 30
e 23 31
e 23 34
e 23 78
e 23 96
e 23 113
e 24 25
e 24 26
e 24 27
e 24 28
e 24 29
e 24 30
e 24 31
e 24 46
e 24 65
e 24 80
e 24 87
e 24 133
e 25 26
e 25 27
e 25 28
e 25 29
e 25 30
e 25 31
e 25 36
e 25 47
e 25 55
e 25 66
e 25 81
e 25 105
e 25 123
e 25 134
e 26 27
e 26 28
e 26 29
e 26 30
e 26 31
e 26 37
e 26 48
e 26 56
e 26 82
e 26 88
e 26 106
e 26 114
e 26 124
e 26 135
e 27 28
e 27 29
e 27 30
e 27 31
e 27 38
e 27 49
e 27 67
e 27 73
e 27 83
e 27 89
e 27 98
e 27 115
e 27 136
e 28 29
e 28 30
e 28 31
e 28 40
e 28 51
e 28 74
e 28 91
e 28 117
e 28 126
e 29 30
e 29 31
e 29 52
e 29 57
e 29 75
e 29 92
e 29 108
e 29 118
e 29 137
e 30 31
e 30 58
e 30 76
e 30 84
e 30 93
e 30 99
e 30 109
e 30 119
e 30 138
e 31 41
e 31 59
e 31 69
e 31 94
e 31 100
e 31 110
e 31 127
e 32 33
e 32 34
e 32 35
e 32 36
e 32 37
e 32 38
e 32 39
e 32 40
e 32 41
e 32 42
e 32 43
e 32 53
e 32 61
e 32 95
e 32 102
e 32 111
e 32 129
e 33 34
e 33 35
e 33 36
e 33 37
e 33 38
e 33 39
e 33 40
e 33 41
e 33 42
e 33 45
e 33 63
e 33 72
e 33 86
e 33 112
e 33 131
e 34 35
e 34 36
e 34 37
e 34 38
e 34 39
e 34 40
e 34 41
e 34 42
e 34 78
e 34 96
e 34 113
e 35 36
e 35 37
e 35 38
e 35 39
e 35 40
e 35 41
e 35 42
e 35 54
e 35 64
e 35 79
e 35 97
e 35 104
e 35 122
e 35 132
e 36 37
e 36 38
e 36 39
e 36 40
e 36 41
e 36 42
e 36 47
e 36 55
e 36 66
e 36 81
e 36 105
e 36 123
e 36 134
e 37 38
e 37 39
e 37 40
e 37 41
e 37 42
e 37 48
e 37 56
e 37 82
e 37 88
e 37 106
e 37 114
e 37 124
e 37 135
e 38 39
e 38 40
e 38 41
e 38 42
e 38 49
e 38 67
e 38 73
e 38 83
e 38 89
e 38 98
e 38 115
e 38 136
e 39 40
e 39 41
e 39 42
e 39 50
e 39 68
e 39 90
e 39 107
e 39 116
e 39 125
e 40 41
e 40 42
e 40 51
e 40 74
e 40 91
e 40 117
e 40 126
e 41 42
e 41 59
e 41 69
e 41 94
e 41 100
e 41 110
e 41 127
e 42 60
e 42 70
e 42 101
e 42 120
e 42 128
e 42 139
e 43 44
e 43 45
e 43 46
e 43 47
e 43 48
e 43 49
e 43 50
e 43 51
e 43 52
e 43 53
e 43 61
e 43 95
e 43 102
e 43 111
e 43 129
e 44 45
e 44 46
e 44 47
e 44 48
e 44 49
e 44 50
e 44 51
e 44 52
e 44 62
e 44 71
e 44 77
e 44 85
e 44 103
e 44 121
e 44 130
e 45 46
e 45 47
e 45 48
e 45 49
e 45 50
e 45 51
e 45 52
e 45 63
e 45 72
e 45 86
e 45 112
e 45 131
e 46 47
e 46 48
e 46 49
e 46 50
e 46 51
e 46 52
e 46 65
e 46 80
e 46 87
e 46 133
e 47 48
e 47 49
e 47 50
e 47 51
e 47 52
e 47 55
e 47 66
e 47 81
e 47 105
e 47 123
e 47 134
e 48 49
e 48 50
e 48 51
e 48 52
e 48 56
e 48 82
e 48 88
e 48 106
e 48 114
e 48 124
e 48 135
e 49 50
e 49 51
e 49 52
e 49 67
e 49 73
e 49 83
e 49 89
e 49 98
e 49 115
e 49 136
e 50 51
e 50 52
e 50 68
e 50 90
e 50 107
e 50 116
e 50 125
e 51 52
e 51 74
e 51 91
e 51 117
e 51 126
e 52 57
e 52 75
e 52 92
e 52 108
e 52 118
e 52 137
e 53 54
e 53 55
e 53 56
e 53 57
e 53 58
e 53 59
e 53 60
e 53 61
e 53 95
e 53 102
e 53 111
e 53 129
e 54 55
e 54 56
e 54 57
e 54 58
e 54 59
e 54 60
e 54 64
e 54 79
e 54 97
e 54 104
e 54 122
e 54 132
e 55 56
e 55 57
e 55 58
e 55 59
e 55 60
e 55 66
e 55 81
e 55 105
e 55 123
e 55 134
e 56 57
e 56 58
e 56 59
e 56 60
e 56 82
e 56 88
e 56 106
e 56 114
e 56 124
e 56 135
e 57 58
e 57 59
e 57 60
e 57 75
e 57 92
e 57 108
e 57 118
e 57 137
e 58 59
e 58 60
e 58 76
e 58 84
e 58 93
e 58 99
e 58 109
e 58 119
e 58 138
e 59 60
e 59 69
e 59 94
e 59 100
e 59 110
e 59 127
e 60 70
e 60 101
e 60 120
e 60 128
e 60 139
e 61 62
e 61 63
e 61 64
e 61 65
e 61 66
e 61 67
e 61 68
e 61 69
e 61 70
e 61 95
e 61 102
e 61 111
e 61 129
e 62 63
e 62 64
e 62 65
e 62 66
e 62 67
e 62 68
e 62 69
e 62 70
e 62 71
e 62 77
e 62 85
e 62 103
e 62 121
e 62 130
e 63 64
e 63 65
e 63 66
e 63 67
e 63 68
e 63 69
e 63 70
e 63 72
e 63 86
e 63 112
e 63 131
e 64 65
e 64 66
e 64 67
e 64 68
e 64 69
e 64 70
e 64 79
e 64 97
e 64 104
e 64 122
e 64 132
e 65 66
e 65 67
e 65 68
e 65 69
e 65 70
e 65 80
e 65 87
e 65 133
e 66 67
e 66 68
e 66 69
e 66 70
e 66 81
e 66 105
e 66 123
e 66 134
e 67 68
e 67 69
e 67 70
e 67 73
e 67 83
e 67 89
e 67 98
e 67 115
e 67 136
e 68 69
e 68 70
e 68 90
e 68 107
e 68 116
e 68 125
e 69 70
e 69 94
e 69 100
e 69 110
e 69 127
e 70 101
e 70 120
e 70 128
e 70 139
e 71 72
e 71 73
e 71 74
e 71 75
e 71 76
e 71 77
e 71 85
e 71 103
e 71 121
e 71 130
e 72 73
e 72 74
e 72 75
e 72 76
e 72 86
e 72 112
e 72 131
e 73 74
e 73 75
e 73 76
e 73 83
e 73 89
e 73 98
e 73 115
e 73 136
e 74 75
e 74 76
e 74 91
e 74 117
e 74 126
e 75 76
e 75 92
e 75 108
e 75 118
e 75 137
e 76 84
e 76 93
e 76 99
e 76 109
e 76 119
e 76 138
e 77 78
e 77 79
e 77 80
e 77 81
e 77 82
e 77 83
e 77 84
e 77 85
e 77 103
e 77 121
e 77 130
e 78 79
e 78 80
e 78 81
e 78 82
e 78 83
e 78 84
e 78 96
e 78 113
e 79 80
e 79 81
e 79 82
e 79 83
e 79 84
e 79 97
e 79 104
e 79 122
e 79 132
e 80 81
e 80 82
e 80 83
e 80 84
e 80 87
e 80 133
e 81 82
e 81 83
e 81 84
e 81 105
e 81 123
e 81 134
e 82 83
e 82 84
e 82 88
e 82 106
e 82 114
e 82 124
e 82 135
e 83 84
e 83 89
e 83 98
e 83 115
e 83 136
e 84 93
e 84 99
e 84 109
e 84 119
e 84 138
e 85 86
e 85 87
e 85 88
e 85 89
e 85 90
e 85 91
e 85 92
e 85 93
e 85 94
e 85 103
e 85 121
e 85 130
e 86 87
e 86 88
e 86 89
e 86 90
e 86 91
e 86 92
e 86 93
e 86 94
e 86 112
e 86 131
e 87 88
e 87 89
e 87 90
e 87 91
e 87 92
e 87 93
e 87 94
e 87 133
e 88 89
e 88 90
e 88 91
e 88 92
e 88 93
e 88 94
e 88 106
e 88 114
e 88 124
e 88 135
e 89 90
e 89 91
e 89 92
e 89 93
e 89 94
e 89 98
e 89 115
e 89 136
e 90 91
e 90 92
e 90 93
e 90 94
e 90 107
e 90 116
e 90 125
e 91 92
e 91 93
e 91 94
e 91 117
e 91 126
e 92 93
e 92 94
e 92 108
e 92 118
e 92 137
e 93 94
e 93 99
e 93 109
e 93 119
e 93 138
e 94 100
e 94 110
e 94 127
e 95 96
e 95 97
e 95 98
e 95 99
e 95 100
e 95 101
e 95 102
e 95 111
e 95 129
e 96 97
e 96 98
e 96 99
e 96 100
e 96 101
e 96 113
e 97 98
e 97 99
e 97 100
e 97 101
e 97 104
e 97 122
e 97 132
e 98 99
e 98 100
e 98 101
e 98 115
e 98 136
e 99 100
e 99 101
e 99 109
e 99 119
e 99 138
e 100 101
e 100 110
e 100 127
e 101 120
e 101 128
e 101 139
e 102 103
e 102 104
e 102 105
e 102 106
e 102 107
e 102 108
e 102 109
e 102 110
e 102 111
e 102 129
e 103 104
e 103 105
e 103 106
e 103 107
e 103 108
e 103 109
e 103 110
e 103 121
e 103 130
e 104 105
e 104 106
e 104 107
e 104 108
e 104 109
e 104 110
e 104 122
e 104 132
e 105 106
e 105 107
e 105 108
e 105 109
e 105 110
e 105 123
e 105 134
e 106 107
e 106 108
e 106 109
e 106 110
e 106 114
e 106 124
e 106 135
e 107 108
e 107 109
e 107 110
e 107 116
e 107 125
e 108 109
e 108 110
e 108 118
e 108 137
e 109 110
e 109 119
e 109 138
e 110 127
e 111 112
e 111 113
e 111 114
e 111 115
e 111 116
e 111 117
e 111 118
e 111 119
e 111 120
e 111 129
e 112 113
e 112 114
e 112 115
e 112 116
e 112 117
e 112 118
e 112 119
e 112 120
e 112 131
e 113 114
e 113 115
e 113 116
e 113 117
e 113 118
e 113 119
e 113 120
e 114 115
e 114 116
e 114 117
e 114 118
e 114 119
e 114 120
e 114 124
e 114 135
e 115 116
e 115 117
e 115 118
e 115 119
e 115 120
e 115 136
e 116 117
e 116 118
e 116 119
e 116 120
e 116 125
e 117 118
e 117 119
e 117 120
e 117 126
e 118 119
e 118 120
e 118 137
e 119 120
e 119 138
e 120 128
e 120 139
e 121 122
e 121 123
e 121 124
e 121 125
e 121 126
e 121 127
e 121 128
e 121 130
e 122 123
e 122 124
e 122 125
e 122 126
e 122 127
e 122 128
e 122 132
e 123 124
e 123 125
e 123 126
e 123 127
e 123 128
e 123 134
e 124 125
e 124 126
e 124 127
e 124 128
e 124 135
e 125 126
e 125 127
e 125 128
e 126 127
e 126 128
e 127 128
e 128 139
e 129 130
e 129 131
e 129 132
e 129 133
e 129 134
e 129 135
e 129 136
e 129 137
e 129 138
e 129 139
e 130 131
e 130 132
e 130 133
e 130 134
e 130 135
e 130 136
e 130 137
e 130 138
e 130 139
e 131 132
e 131 133
e 131 134
e 131 135
e 131 136
e 131 137
e 131 138
e 131 139
e 132 133
e 132 134
e 132 135
e 132 136
e 132 137
e 132 138
e 132 139
e 133 134
e 133 135
e 133 136
e 133 137
e 133 138
e 133 139
e 134 135
e 134 136
e 134 137
e 134 138
e 134 139
e 135 136
e 135 137
e 135 138
e 135 139
e 136 137
e 136 138
e 136 139
e 137 138
e 137 139
e 138 139
